\ This file has been generated by DOcplex
\ ENCODING=ISO-8859-1
\Problem name: AMC Linear Optimization-Stigler Diet

Minimize
 obj: Wheat_Flour_(Enriched) + Macaroni + Wheat_Cereal_(Enriched) + Corn_Flakes
      + Corn_Meal + Hominy_Grits + Rice + Rolled_Oats + White_Bread_(Enriched)
      + Whole_Wheat_Bread + Rye_Bread + Pound_Cake + Soda_Crackers + Milk
      + _Evaporated_Milk_(can) + Butter + Oleomargarine + _Eggs
      + Cheese_(Cheddar) + Cream + Peanut_Butter + Mayonnaise + Crisco + Lard
      + Sirloin_Steak + Round_Steak + Rib_Roast + Chuck_Roast + Plate
      + Liver_(Beef) + Leg_of_Lamb + Lamb_Chops_(Rib) + Pork_Chops
      + Pork_Loin_Roast + Bacon + Ham,_smoked + Salt_Pork + Roasting_Chicken
      + Veal_Cutlets + Salmon,_Pink_(can) + Apples + Bananas + Lemons + Oranges
      + Green_Beans + Cabbage + Carrots + Celery + Lettuce + Onions + Potatoes
      + Spinach + Sweet_Potatoes + Peaches_(can) + Pears_(can) + Pineapple_(can)
      + Asparagus_(can) + Green_Beans_(can) + Pork_and_Beans_(can) + Corn_(can)
      + Peas_(can) + Tomatoes_(can) + Tomato_Soup_(can) + Peaches,_Dried
      + Prunes,_Dried + Raisins,_Dried + Peas,_Dried + Lima_Beans,_Dried
      + Navy_Beans,_Dried + Coffee + Tea + Cocoa + Chocolate + Sugar
      + Corn_Syrup + Molasses + Strawberry_Preserves
Subject To
 Calories_(1000s): 44.700000000000 Wheat_Flour_(Enriched)
                   + 11.600000000000 Macaroni
                   + 11.800000000000 Wheat_Cereal_(Enriched)
                   + 11.400000000000 Corn_Flakes + 36 Corn_Meal
                   + 28.600000000000 Hominy_Grits + 21.200000000000 Rice
                   + 25.300000000000 Rolled_Oats + 15 White_Bread_(Enriched)
                   + 12.200000000000 Whole_Wheat_Bread
                   + 12.400000000000 Rye_Bread + 8 Pound_Cake
                   + 12.500000000000 Soda_Crackers + 6.100000000000 Milk
                   + 8.400000000000 _Evaporated_Milk_(can)
                   + 10.800000000000 Butter + 20.600000000000 Oleomargarine
                   + 2.900000000000 _Eggs + 7.400000000000 Cheese_(Cheddar)
                   + 3.500000000000 Cream + 15.700000000000 Peanut_Butter
                   + 8.600000000000 Mayonnaise + 20.100000000000 Crisco
                   + 41.700000000000 Lard + 2.900000000000 Sirloin_Steak
                   + 2.200000000000 Round_Steak + 3.400000000000 Rib_Roast
                   + 3.600000000000 Chuck_Roast + 8.500000000000 Plate
                   + 2.200000000000 Liver_(Beef) + 3.100000000000 Leg_of_Lamb
                   + 3.300000000000 Lamb_Chops_(Rib) + 3.500000000000 Pork_Chops
                   + 4.400000000000 Pork_Loin_Roast + 10.400000000000 Bacon
                   + 6.700000000000 Ham,_smoked + 18.800000000000 Salt_Pork
                   + 1.800000000000 Roasting_Chicken
                   + 1.700000000000 Veal_Cutlets
                   + 5.800000000000 Salmon,_Pink_(can) + 5.800000000000 Apples
                   + 4.900000000000 Bananas + Lemons + 2.200000000000 Oranges
                   + 2.400000000000 Green_Beans + 2.600000000000 Cabbage
                   + 2.700000000000 Carrots + 0.900000000000 Celery
                   + 0.400000000000 Lettuce + 5.800000000000 Onions
                   + 14.300000000000 Potatoes + 1.100000000000 Spinach
                   + 9.600000000000 Sweet_Potatoes
                   + 3.700000000000 Peaches_(can) + 3 Pears_(can)
                   + 2.400000000000 Pineapple_(can)
                   + 0.400000000000 Asparagus_(can) + Green_Beans_(can)
                   + 7.500000000000 Pork_and_Beans_(can)
                   + 5.200000000000 Corn_(can) + 2.300000000000 Peas_(can)
                   + 1.300000000000 Tomatoes_(can)
                   + 1.600000000000 Tomato_Soup_(can)
                   + 8.500000000000 Peaches,_Dried
                   + 12.800000000000 Prunes,_Dried
                   + 13.500000000000 Raisins,_Dried + 20 Peas,_Dried
                   + 17.400000000000 Lima_Beans,_Dried
                   + 26.900000000000 Navy_Beans,_Dried + 8.700000000000 Cocoa
                   + 8 Chocolate + 34.900000000000 Sugar
                   + 14.700000000000 Corn_Syrup + 9 Molasses
                   + 6.400000000000 Strawberry_Preserves >= 3
 Protein_(grams): 1411 Wheat_Flour_(Enriched) + 418 Macaroni
                  + 377 Wheat_Cereal_(Enriched) + 252 Corn_Flakes
                  + 897 Corn_Meal + 680 Hominy_Grits + 460 Rice
                  + 907 Rolled_Oats + 488 White_Bread_(Enriched)
                  + 484 Whole_Wheat_Bread + 439 Rye_Bread + 130 Pound_Cake
                  + 288 Soda_Crackers + 310 Milk + 422 _Evaporated_Milk_(can)
                  + 9 Butter + 17 Oleomargarine + 238 _Eggs
                  + 448 Cheese_(Cheddar) + 49 Cream + 661 Peanut_Butter
                  + 18 Mayonnaise + 166 Sirloin_Steak + 214 Round_Steak
                  + 213 Rib_Roast + 309 Chuck_Roast + 404 Plate
                  + 333 Liver_(Beef) + 245 Leg_of_Lamb + 140 Lamb_Chops_(Rib)
                  + 196 Pork_Chops + 249 Pork_Loin_Roast + 152 Bacon
                  + 212 Ham,_smoked + 164 Salt_Pork + 184 Roasting_Chicken
                  + 156 Veal_Cutlets + 705 Salmon,_Pink_(can) + 27 Apples
                  + 60 Bananas + 21 Lemons + 40 Oranges + 138 Green_Beans
                  + 125 Cabbage + 73 Carrots + 51 Celery + 27 Lettuce
                  + 166 Onions + 336 Potatoes + 106 Spinach + 138 Sweet_Potatoes
                  + 20 Peaches_(can) + 8 Pears_(can) + 16 Pineapple_(can)
                  + 33 Asparagus_(can) + 54 Green_Beans_(can)
                  + 364 Pork_and_Beans_(can) + 136 Corn_(can) + 136 Peas_(can)
                  + 63 Tomatoes_(can) + 71 Tomato_Soup_(can) + 87 Peaches,_Dried
                  + 99 Prunes,_Dried + 104 Raisins,_Dried + 1367 Peas,_Dried
                  + 1055 Lima_Beans,_Dried + 1691 Navy_Beans,_Dried + 237 Cocoa
                  + 77 Chocolate + 11 Strawberry_Preserves >= 70
 Calcium_(grams): 2 Wheat_Flour_(Enriched) + 0.700000000000 Macaroni
                  + 14.400000000000 Wheat_Cereal_(Enriched)
                  + 0.100000000000 Corn_Flakes + 1.700000000000 Corn_Meal
                  + 0.800000000000 Hominy_Grits + 0.600000000000 Rice
                  + 5.100000000000 Rolled_Oats
                  + 2.500000000000 White_Bread_(Enriched)
                  + 2.700000000000 Whole_Wheat_Bread + 1.100000000000 Rye_Bread
                  + 0.400000000000 Pound_Cake + 0.500000000000 Soda_Crackers
                  + 10.500000000000 Milk
                  + 15.100000000000 _Evaporated_Milk_(can)
                  + 0.200000000000 Butter + 0.600000000000 Oleomargarine + _Eggs
                  + 16.400000000000 Cheese_(Cheddar) + 1.700000000000 Cream
                  + Peanut_Butter + 0.200000000000 Mayonnaise
                  + 0.100000000000 Sirloin_Steak + 0.100000000000 Round_Steak
                  + 0.100000000000 Rib_Roast + 0.200000000000 Chuck_Roast
                  + 0.200000000000 Plate + 0.200000000000 Liver_(Beef)
                  + 0.100000000000 Leg_of_Lamb + 0.100000000000 Lamb_Chops_(Rib)
                  + 0.200000000000 Pork_Chops + 0.300000000000 Pork_Loin_Roast
                  + 0.200000000000 Bacon + 0.200000000000 Ham,_smoked
                  + 0.100000000000 Salt_Pork + 0.100000000000 Roasting_Chicken
                  + 0.100000000000 Veal_Cutlets
                  + 6.800000000000 Salmon,_Pink_(can) + 0.500000000000 Apples
                  + 0.400000000000 Bananas + 0.500000000000 Lemons
                  + 1.100000000000 Oranges + 3.700000000000 Green_Beans
                  + 4 Cabbage + 2.800000000000 Carrots + 3 Celery
                  + 1.100000000000 Lettuce + 3.800000000000 Onions
                  + 1.800000000000 Potatoes + 2.700000000000 Sweet_Potatoes
                  + 0.400000000000 Peaches_(can) + 0.300000000000 Pears_(can)
                  + 0.400000000000 Pineapple_(can)
                  + 0.300000000000 Asparagus_(can) + 2 Green_Beans_(can)
                  + 4 Pork_and_Beans_(can) + 0.200000000000 Corn_(can)
                  + 0.600000000000 Peas_(can) + 0.700000000000 Tomatoes_(can)
                  + 0.600000000000 Tomato_Soup_(can)
                  + 1.700000000000 Peaches,_Dried + 2.500000000000 Prunes,_Dried
                  + 2.500000000000 Raisins,_Dried + 4.200000000000 Peas,_Dried
                  + 3.700000000000 Lima_Beans,_Dried
                  + 11.400000000000 Navy_Beans,_Dried + 3 Cocoa
                  + 1.300000000000 Chocolate + 0.500000000000 Corn_Syrup
                  + 10.300000000000 Molasses
                  + 0.400000000000 Strawberry_Preserves >= 0.800000000000
 Iron_(mg): 365 Wheat_Flour_(Enriched) + 54 Macaroni
            + 175 Wheat_Cereal_(Enriched) + 56 Corn_Flakes + 99 Corn_Meal
            + 80 Hominy_Grits + 41 Rice + 341 Rolled_Oats
            + 115 White_Bread_(Enriched) + 125 Whole_Wheat_Bread + 82 Rye_Bread
            + 31 Pound_Cake + 50 Soda_Crackers + 18 Milk
            + 9 _Evaporated_Milk_(can) + 3 Butter + 6 Oleomargarine + 52 _Eggs
            + 19 Cheese_(Cheddar) + 3 Cream + 48 Peanut_Butter + 8 Mayonnaise
            + 34 Sirloin_Steak + 32 Round_Steak + 33 Rib_Roast + 46 Chuck_Roast
            + 62 Plate + 139 Liver_(Beef) + 20 Leg_of_Lamb + 15 Lamb_Chops_(Rib)
            + 30 Pork_Chops + 37 Pork_Loin_Roast + 23 Bacon + 31 Ham,_smoked
            + 26 Salt_Pork + 30 Roasting_Chicken + 24 Veal_Cutlets
            + 45 Salmon,_Pink_(can) + 36 Apples + 30 Bananas + 14 Lemons
            + 18 Oranges + 80 Green_Beans + 36 Cabbage + 43 Carrots + 23 Celery
            + 22 Lettuce + 59 Onions + 118 Potatoes + 138 Spinach
            + 54 Sweet_Potatoes + 10 Peaches_(can) + 8 Pears_(can)
            + 8 Pineapple_(can) + 12 Asparagus_(can) + 65 Green_Beans_(can)
            + 134 Pork_and_Beans_(can) + 16 Corn_(can) + 45 Peas_(can)
            + 38 Tomatoes_(can) + 43 Tomato_Soup_(can) + 173 Peaches,_Dried
            + 154 Prunes,_Dried + 136 Raisins,_Dried + 345 Peas,_Dried
            + 459 Lima_Beans,_Dried + 792 Navy_Beans,_Dried + 72 Cocoa
            + 39 Chocolate + 74 Corn_Syrup + 244 Molasses
            + 7 Strawberry_Preserves >= 12
 Vitamin_A_(1000_IU): 30.900000000000 Corn_Meal + 18.900000000000 Pound_Cake
                      + 16.800000000000 Milk + 26 _Evaporated_Milk_(can)
                      + 44.200000000000 Butter + 55.800000000000 Oleomargarine
                      + 18.600000000000 _Eggs + 28.100000000000 Cheese_(Cheddar)
                      + 16.900000000000 Cream + 2.700000000000 Mayonnaise
                      + 0.200000000000 Lard + 0.200000000000 Sirloin_Steak
                      + 0.400000000000 Round_Steak + 0.400000000000 Chuck_Roast
                      + 169.200000000000 Liver_(Beef)
                      + 0.100000000000 Roasting_Chicken
                      + 3.500000000000 Salmon,_Pink_(can)
                      + 7.300000000000 Apples + 17.400000000000 Bananas
                      + 11.100000000000 Oranges + 69 Green_Beans
                      + 7.200000000000 Cabbage + 188.500000000000 Carrots
                      + 0.900000000000 Celery + 112.400000000000 Lettuce
                      + 16.600000000000 Onions + 6.700000000000 Potatoes
                      + 918.400000000000 Spinach
                      + 290.700000000000 Sweet_Potatoes
                      + 21.500000000000 Peaches_(can)
                      + 0.800000000000 Pears_(can) + 2 Pineapple_(can)
                      + 16.300000000000 Asparagus_(can)
                      + 53.900000000000 Green_Beans_(can)
                      + 3.500000000000 Pork_and_Beans_(can) + 12 Corn_(can)
                      + 34.900000000000 Peas_(can)
                      + 53.200000000000 Tomatoes_(can)
                      + 57.900000000000 Tomato_Soup_(can)
                      + 86.800000000000 Peaches,_Dried
                      + 85.700000000000 Prunes,_Dried
                      + 4.500000000000 Raisins,_Dried
                      + 2.900000000000 Peas,_Dried
                      + 5.100000000000 Lima_Beans,_Dried
                      + 0.200000000000 Strawberry_Preserves >= 5
 Vitamin_B1_(mg): 55.400000000000 Wheat_Flour_(Enriched)
                  + 3.200000000000 Macaroni
                  + 14.400000000000 Wheat_Cereal_(Enriched)
                  + 13.500000000000 Corn_Flakes + 17.400000000000 Corn_Meal
                  + 10.600000000000 Hominy_Grits + 2 Rice
                  + 37.100000000000 Rolled_Oats
                  + 13.800000000000 White_Bread_(Enriched)
                  + 13.900000000000 Whole_Wheat_Bread + 9.900000000000 Rye_Bread
                  + 2.800000000000 Pound_Cake + 4 Milk
                  + 3 _Evaporated_Milk_(can) + 0.200000000000 Oleomargarine
                  + 2.800000000000 _Eggs + 0.800000000000 Cheese_(Cheddar)
                  + 0.600000000000 Cream + 9.600000000000 Peanut_Butter
                  + 0.400000000000 Mayonnaise + 2.100000000000 Sirloin_Steak
                  + 2.500000000000 Round_Steak + Chuck_Roast
                  + 0.900000000000 Plate + 6.400000000000 Liver_(Beef)
                  + 2.800000000000 Leg_of_Lamb + 1.700000000000 Lamb_Chops_(Rib)
                  + 17.400000000000 Pork_Chops + 18.200000000000 Pork_Loin_Roast
                  + 1.800000000000 Bacon + 9.900000000000 Ham,_smoked
                  + 1.400000000000 Salt_Pork + 0.900000000000 Roasting_Chicken
                  + 1.400000000000 Veal_Cutlets + Salmon,_Pink_(can)
                  + 3.600000000000 Apples + 2.500000000000 Bananas
                  + 0.500000000000 Lemons + 3.600000000000 Oranges
                  + 4.300000000000 Green_Beans + 9 Cabbage
                  + 6.100000000000 Carrots + 1.400000000000 Celery
                  + 1.800000000000 Lettuce + 4.700000000000 Onions
                  + 29.400000000000 Potatoes + 5.700000000000 Spinach
                  + 8.400000000000 Sweet_Potatoes + 0.500000000000 Peaches_(can)
                  + 0.800000000000 Pears_(can) + 2.800000000000 Pineapple_(can)
                  + 1.400000000000 Asparagus_(can)
                  + 1.600000000000 Green_Beans_(can)
                  + 8.300000000000 Pork_and_Beans_(can)
                  + 1.600000000000 Corn_(can) + 4.900000000000 Peas_(can)
                  + 3.400000000000 Tomatoes_(can)
                  + 3.500000000000 Tomato_Soup_(can)
                  + 1.200000000000 Peaches,_Dried + 3.900000000000 Prunes,_Dried
                  + 6.300000000000 Raisins,_Dried + 28.700000000000 Peas,_Dried
                  + 26.900000000000 Lima_Beans,_Dried
                  + 38.400000000000 Navy_Beans,_Dried + 4 Coffee + 2 Cocoa
                  + 0.900000000000 Chocolate + 1.900000000000 Molasses
                  + 0.200000000000 Strawberry_Preserves >= 1.800000000000
 Vitamin_B2_(mg): 33.300000000000 Wheat_Flour_(Enriched)
                  + 1.900000000000 Macaroni
                  + 8.800000000000 Wheat_Cereal_(Enriched)
                  + 2.300000000000 Corn_Flakes + 7.900000000000 Corn_Meal
                  + 1.600000000000 Hominy_Grits + 4.800000000000 Rice
                  + 8.900000000000 Rolled_Oats
                  + 8.500000000000 White_Bread_(Enriched)
                  + 6.400000000000 Whole_Wheat_Bread + 3 Rye_Bread
                  + 3 Pound_Cake + 16 Milk
                  + 23.500000000000 _Evaporated_Milk_(can)
                  + 0.200000000000 Butter + 6.500000000000 _Eggs
                  + 10.300000000000 Cheese_(Cheddar) + 2.500000000000 Cream
                  + 8.100000000000 Peanut_Butter + 0.500000000000 Mayonnaise
                  + 0.500000000000 Lard + 2.900000000000 Sirloin_Steak
                  + 2.400000000000 Round_Steak + 2 Rib_Roast + 4 Chuck_Roast
                  + 50.800000000000 Liver_(Beef) + 3.900000000000 Leg_of_Lamb
                  + 2.700000000000 Lamb_Chops_(Rib) + 2.700000000000 Pork_Chops
                  + 3.600000000000 Pork_Loin_Roast + 1.800000000000 Bacon
                  + 3.300000000000 Ham,_smoked + 1.800000000000 Salt_Pork
                  + 1.800000000000 Roasting_Chicken
                  + 2.400000000000 Veal_Cutlets
                  + 4.900000000000 Salmon,_Pink_(can) + 2.700000000000 Apples
                  + 3.500000000000 Bananas + 1.300000000000 Oranges
                  + 5.800000000000 Green_Beans + 4.500000000000 Cabbage
                  + 4.300000000000 Carrots + 1.400000000000 Celery
                  + 3.400000000000 Lettuce + 5.900000000000 Onions
                  + 7.100000000000 Potatoes + 13.800000000000 Spinach
                  + 5.400000000000 Sweet_Potatoes + Peaches_(can)
                  + 0.800000000000 Pears_(can) + 0.800000000000 Pineapple_(can)
                  + 2.100000000000 Asparagus_(can)
                  + 4.300000000000 Green_Beans_(can)
                  + 7.700000000000 Pork_and_Beans_(can)
                  + 2.700000000000 Corn_(can) + 2.500000000000 Peas_(can)
                  + 2.500000000000 Tomatoes_(can)
                  + 2.400000000000 Tomato_Soup_(can)
                  + 4.300000000000 Peaches,_Dried + 4.300000000000 Prunes,_Dried
                  + 1.400000000000 Raisins,_Dried + 18.400000000000 Peas,_Dried
                  + 38.200000000000 Lima_Beans,_Dried
                  + 24.600000000000 Navy_Beans,_Dried + 5.100000000000 Coffee
                  + 2.300000000000 Tea + 11.900000000000 Cocoa
                  + 3.400000000000 Chocolate + 7.500000000000 Molasses
                  + 0.400000000000 Strawberry_Preserves >= 2.700000000000
 Niacin_(mg): 441 Wheat_Flour_(Enriched) + 68 Macaroni
              + 114 Wheat_Cereal_(Enriched) + 68 Corn_Flakes + 106 Corn_Meal
              + 110 Hominy_Grits + 60 Rice + 64 Rolled_Oats
              + 126 White_Bread_(Enriched) + 160 Whole_Wheat_Bread
              + 66 Rye_Bread + 17 Pound_Cake + 7 Milk
              + 11 _Evaporated_Milk_(can) + 2 Butter + _Eggs
              + 4 Cheese_(Cheddar) + 471 Peanut_Butter + 5 Lard
              + 69 Sirloin_Steak + 87 Round_Steak + 120 Chuck_Roast
              + 316 Liver_(Beef) + 86 Leg_of_Lamb + 54 Lamb_Chops_(Rib)
              + 60 Pork_Chops + 79 Pork_Loin_Roast + 71 Bacon + 50 Ham,_smoked
              + 68 Roasting_Chicken + 57 Veal_Cutlets + 209 Salmon,_Pink_(can)
              + 5 Apples + 28 Bananas + 4 Lemons + 10 Oranges + 37 Green_Beans
              + 26 Cabbage + 89 Carrots + 9 Celery + 11 Lettuce + 21 Onions
              + 198 Potatoes + 33 Spinach + 83 Sweet_Potatoes + 31 Peaches_(can)
              + 5 Pears_(can) + 7 Pineapple_(can) + 17 Asparagus_(can)
              + 32 Green_Beans_(can) + 56 Pork_and_Beans_(can) + 42 Corn_(can)
              + 37 Peas_(can) + 36 Tomatoes_(can) + 67 Tomato_Soup_(can)
              + 55 Peaches,_Dried + 65 Prunes,_Dried + 24 Raisins,_Dried
              + 162 Peas,_Dried + 93 Lima_Beans,_Dried + 217 Navy_Beans,_Dried
              + 50 Coffee + 42 Tea + 40 Cocoa + 14 Chocolate + 5 Corn_Syrup
              + 146 Molasses + 3 Strawberry_Preserves >= 18
 Vitamin_C_(mg): 177 Milk + 60 _Evaporated_Milk_(can) + 17 Cream
                 + 525 Liver_(Beef) + 46 Roasting_Chicken + 544 Apples
                 + 498 Bananas + 952 Lemons + 1998 Oranges + 862 Green_Beans
                 + 5369 Cabbage + 608 Carrots + 313 Celery + 449 Lettuce
                 + 1184 Onions + 2522 Potatoes + 2755 Spinach
                 + 1912 Sweet_Potatoes + 196 Peaches_(can) + 81 Pears_(can)
                 + 399 Pineapple_(can) + 272 Asparagus_(can)
                 + 431 Green_Beans_(can) + 218 Corn_(can) + 370 Peas_(can)
                 + 1253 Tomatoes_(can) + 862 Tomato_Soup_(can)
                 + 57 Peaches,_Dried + 257 Prunes,_Dried + 136 Raisins,_Dried
                  >= 75

Bounds
End
